5908 4611
4850 3881
2246 6987
4082 8112
6268 3819
1318 2089
9938 8046
8413 9342
353 2902
5343 5046
4705 7117
7406 850
8348 887
3330 9328
8333 65
465 7472
4099 3396
4371 8136
7102 7464
4751 4179
6152 4552
1946 2466
4395 3818
3769 5759
7488 9125
878 4873
7307 6795
7016 9999
7821 7376
990 2213
5238 8616
6005 5213
8969 5687
3932 2299
920 7084
3289 7315
1098 3857
5273 5367
1522 3205
1876 1884
4655 796
2393 60
9037 4756
7084 7213
4736 4226
2988 4022
4726 7098
3063 6886
6577 5417
8334 2954
